p wcnf 177 428
w -2 0.367879 0
w 2 2.718282 0
w -3 0.367879 0
w 3 2.718282 0
w -4 0.367879 0
w 4 2.718282 0
w -5 0.367879 0
w 5 2.718282 0
w -7 0.367879 0
w 7 2.718282 0
w -8 0.367879 0
w 8 2.718282 0
w -9 0.367879 0
w 9 2.718282 0
w -10 0.367879 0
w 10 2.718282 0
w -12 0.367879 0
w 12 2.718282 0
w -13 0.367879 0
w 13 2.718282 0
w -14 0.367879 0
w 14 2.718282 0
w -16 0.367879 0
w 16 2.718282 0
w -17 0.367879 0
w 17 2.718282 0
w -18 0.367879 0
w 18 2.718282 0
w -20 0.367879 0
w 20 2.718282 0
w -21 0.367879 0
w 21 2.718282 0
w -22 0.367879 0
w 22 2.718282 0
w -24 0.367879 0
w 24 2.718282 0
w -25 0.367879 0
w 25 2.718282 0
w -27 0.367879 0
w 27 2.718282 0
w -28 0.367879 0
w 28 2.718282 0
w -30 0.367879 0
w 30 2.718282 0
w -31 0.367879 0
w 31 2.718282 0
w -33 0.367879 0
w 33 2.718282 0
w -34 0.367879 0
w 34 2.718282 0
w -35 0.367879 0
w 35 2.718282 0
w -36 0.367879 0
w 36 2.718282 0
w -37 0.367879 0
w 37 2.718282 0
w -38 0.367879 0
w 38 2.718282 0
w -40 0.367879 0
w 40 2.718282 0
w -41 0.367879 0
w 41 2.718282 0
w -43 0.367879 0
w 43 2.718282 0
w -44 0.367879 0
w 44 2.718282 0
w -46 0.367879 0
w 46 2.718282 0
w -47 0.367879 0
w 47 2.718282 0
w -48 0.367879 0
w 48 2.718282 0
w -50 0.367879 0
w 50 2.718282 0
w -51 0.367879 0
w 51 2.718282 0
w -52 0.367879 0
w 52 2.718282 0
w -53 0.367879 0
w 53 2.718282 0
w -55 0.367879 0
w 55 2.718282 0
w -56 0.367879 0
w 56 2.718282 0
w -58 0.367879 0
w 58 2.718282 0
w -61 0.367879 0
w 61 2.718282 0
w -62 0.367879 0
w 62 2.718282 0
w -63 0.367879 0
w 63 2.718282 0
w -64 0.367879 0
w 64 2.718282 0
w -66 0.367879 0
w 66 2.718282 0
w -67 0.367879 0
w 67 2.718282 0
w -68 0.367879 0
w 68 2.718282 0
w -70 0.367879 0
w 70 2.718282 0
w -72 0.367879 0
w 72 2.718282 0
w -73 0.367879 0
w 73 2.718282 0
w -74 0.367879 0
w 74 2.718282 0
w -76 0.367879 0
w 76 2.718282 0
w -78 0.367879 0
w 78 2.718282 0
w -80 0.367879 0
w 80 2.718282 0
w -82 0.367879 0
w 82 2.718282 0
w -84 0.367879 0
w 84 2.718282 0
w -85 0.367879 0
w 85 2.718282 0
w -86 0.367879 0
w 86 2.718282 0
w -89 0.367879 0
w 89 2.718282 0
w -90 0.367879 0
w 90 2.718282 0
w -91 0.367879 0
w 91 2.718282 0
w -92 0.367879 0
w 92 2.718282 0
w -95 0.367879 0
w 95 2.718282 0
w -97 0.367879 0
w 97 2.718282 0
w -100 0.367879 0
w 100 2.718282 0
w -101 0.367879 0
w 101 2.718282 0
w -103 0.367879 0
w 103 2.718282 0
w -104 0.367879 0
w 104 2.718282 0
w -105 0.367879 0
w 105 2.718282 0
w -106 0.367879 0
w 106 2.718282 0
w -108 0.367879 0
w 108 2.718282 0
w -109 0.367879 0
w 109 2.718282 0
w -110 0.367879 0
w 110 2.718282 0
w -112 0.367879 0
w 112 2.718282 0
w -113 0.367879 0
w 113 2.718282 0
w -115 0.367879 0
w 115 2.718282 0
w -117 0.367879 0
w 117 2.718282 0
w -119 0.367879 0
w 119 2.718282 0
w -120 0.367879 0
w 120 2.718282 0
w -122 0.367879 0
w 122 2.718282 0
w -124 0.367879 0
w 124 2.718282 0
w -125 0.367879 0
w 125 2.718282 0
w -126 0.367879 0
w 126 2.718282 0
w -128 0.367879 0
w 128 2.718282 0
w -131 0.367879 0
w 131 2.718282 0
w -132 0.367879 0
w 132 2.718282 0
w -133 0.367879 0
w 133 2.718282 0
w -134 0.367879 0
w 134 2.718282 0
w -136 0.367879 0
w 136 2.718282 0
w -137 0.367879 0
w 137 2.718282 0
w -139 0.367879 0
w 139 2.718282 0
w -141 0.367879 0
w 141 2.718282 0
w -144 0.367879 0
w 144 2.718282 0
w -146 0.367879 0
w 146 2.718282 0
w -147 0.367879 0
w 147 2.718282 0
w -149 0.367879 0
w 149 2.718282 0
w -153 0.367879 0
w 153 2.718282 0
w -154 0.367879 0
w 154 2.718282 0
w -155 0.367879 0
w 155 2.718282 0
w -156 0.367879 0
w 156 2.718282 0
w -161 0.367879 0
w 161 2.718282 0
w -163 0.367879 0
w 163 2.718282 0
w -167 0.367879 0
w 167 2.718282 0
w -170 0.367879 0
w 170 2.718282 0
2 1 71 0
2 -1 -71 0
-2 1 -71 0
-2 -1 71 0
3 1 75 0
3 -1 -75 0
-3 1 -75 0
-3 -1 75 0
4 1 102 0
4 -1 -102 0
-4 1 -102 0
-4 -1 102 0
5 1 171 0
5 -1 -171 0
-5 1 -171 0
-5 -1 171 0
7 6 135 0
7 -6 -135 0
-7 6 -135 0
-7 -6 135 0
8 6 140 0
8 -6 -140 0
-8 6 -140 0
-8 -6 140 0
9 6 152 0
9 -6 -152 0
-9 6 -152 0
-9 -6 152 0
10 6 164 0
10 -6 -164 0
-10 6 -164 0
-10 -6 164 0
12 11 42 0
12 -11 -42 0
-12 11 -42 0
-12 -11 42 0
13 11 94 0
13 -11 -94 0
-13 11 -94 0
-13 -11 94 0
14 11 142 0
14 -11 -142 0
-14 11 -142 0
-14 -11 142 0
16 15 32 0
16 -15 -32 0
-16 15 -32 0
-16 -15 32 0
17 15 107 0
17 -15 -107 0
-17 15 -107 0
-17 -15 107 0
18 15 138 0
18 -15 -138 0
-18 15 -138 0
-18 -15 138 0
20 19 75 0
20 -19 -75 0
-20 19 -75 0
-20 -19 75 0
21 19 165 0
21 -19 -165 0
-21 19 -165 0
-21 -19 165 0
22 19 172 0
22 -19 -172 0
-22 19 -172 0
-22 -19 172 0
24 23 145 0
24 -23 -145 0
-24 23 -145 0
-24 -23 145 0
25 23 164 0
25 -23 -164 0
-25 23 -164 0
-25 -23 164 0
27 26 130 0
27 -26 -130 0
-27 26 -130 0
-27 -26 130 0
28 26 168 0
28 -26 -168 0
-28 26 -168 0
-28 -26 168 0
30 29 81 0
30 -29 -81 0
-30 29 -81 0
-30 -29 81 0
31 29 96 0
31 -29 -96 0
-31 29 -96 0
-31 -29 96 0
33 32 45 0
33 -32 -45 0
-33 32 -45 0
-33 -32 45 0
34 32 81 0
34 -32 -81 0
-34 32 -81 0
-34 -32 81 0
35 32 88 0
35 -32 -88 0
-35 32 -88 0
-35 -32 88 0
36 32 116 0
36 -32 -116 0
-36 32 -116 0
-36 -32 116 0
37 32 142 0
37 -32 -142 0
-37 32 -142 0
-37 -32 142 0
38 32 158 0
38 -32 -158 0
-38 32 -158 0
-38 -32 158 0
40 39 99 0
40 -39 -99 0
-40 39 -99 0
-40 -39 99 0
41 39 177 0
41 -39 -177 0
-41 39 -177 0
-41 -39 177 0
43 42 123 0
43 -42 -123 0
-43 42 -123 0
-43 -42 123 0
44 42 171 0
44 -42 -171 0
-44 42 -171 0
-44 -42 171 0
46 45 129 0
46 -45 -129 0
-46 45 -129 0
-46 -45 129 0
47 45 158 0
47 -45 -158 0
-47 45 -158 0
-47 -45 158 0
48 45 165 0
48 -45 -165 0
-48 45 -165 0
-48 -45 165 0
50 49 81 0
50 -49 -81 0
-50 49 -81 0
-50 -49 81 0
51 49 143 0
51 -49 -143 0
-51 49 -143 0
-51 -49 143 0
52 49 158 0
52 -49 -158 0
-52 49 -158 0
-52 -49 158 0
53 49 168 0
53 -49 -168 0
-53 49 -168 0
-53 -49 168 0
55 54 93 0
55 -54 -93 0
-55 54 -93 0
-55 -54 93 0
56 54 116 0
56 -54 -116 0
-56 54 -116 0
-56 -54 116 0
58 57 102 0
58 -57 -102 0
-58 57 -102 0
-58 -57 102 0
61 60 65 0
61 -60 -65 0
-61 60 -65 0
-61 -60 65 0
62 60 143 0
62 -60 -143 0
-62 60 -143 0
-62 -60 143 0
63 60 166 0
63 -60 -166 0
-63 60 -166 0
-63 -60 166 0
64 60 172 0
64 -60 -172 0
-64 60 -172 0
-64 -60 172 0
66 65 123 0
66 -65 -123 0
-66 65 -123 0
-66 -65 123 0
67 65 130 0
67 -65 -130 0
-67 65 -130 0
-67 -65 130 0
68 65 143 0
68 -65 -143 0
-68 65 -143 0
-68 -65 143 0
70 69 116 0
70 -69 -116 0
-70 69 -116 0
-70 -69 116 0
72 71 99 0
72 -71 -99 0
-72 71 -99 0
-72 -71 99 0
73 71 143 0
73 -71 -143 0
-73 71 -143 0
-73 -71 143 0
74 71 173 0
74 -71 -173 0
-74 71 -173 0
-74 -71 173 0
76 75 135 0
76 -75 -135 0
-76 75 -135 0
-76 -75 135 0
78 77 118 0
78 -77 -118 0
-78 77 -118 0
-78 -77 118 0
80 79 159 0
80 -79 -159 0
-80 79 -159 0
-80 -79 159 0
82 81 140 0
82 -81 -140 0
-82 81 -140 0
-82 -81 140 0
84 83 107 0
84 -83 -107 0
-84 83 -107 0
-84 -83 107 0
85 83 123 0
85 -83 -123 0
-85 83 -123 0
-85 -83 123 0
86 83 145 0
86 -83 -145 0
-86 83 -145 0
-86 -83 145 0
89 88 116 0
89 -88 -116 0
-89 88 -116 0
-89 -88 116 0
90 88 127 0
90 -88 -127 0
-90 88 -127 0
-90 -88 127 0
91 88 158 0
91 -88 -158 0
-91 88 -158 0
-91 -88 158 0
92 88 176 0
92 -88 -176 0
-92 88 -176 0
-92 -88 176 0
95 94 160 0
95 -94 -160 0
-95 94 -160 0
-95 -94 160 0
97 96 129 0
97 -96 -129 0
-97 96 -129 0
-97 -96 129 0
100 99 116 0
100 -99 -116 0
-100 99 -116 0
-100 -99 116 0
101 99 150 0
101 -99 -150 0
-101 99 -150 0
-101 -99 150 0
103 102 114 0
103 -102 -114 0
-103 102 -114 0
-103 -102 114 0
104 102 164 0
104 -102 -164 0
-104 102 -164 0
-104 -102 164 0
105 102 171 0
105 -102 -171 0
-105 102 -171 0
-105 -102 171 0
106 102 177 0
106 -102 -177 0
-106 102 -177 0
-106 -102 177 0
108 107 168 0
108 -107 -168 0
-108 107 -168 0
-108 -107 168 0
109 107 171 0
109 -107 -171 0
-109 107 -171 0
-109 -107 171 0
110 107 175 0
110 -107 -175 0
-110 107 -175 0
-110 -107 175 0
112 111 152 0
112 -111 -152 0
-112 111 -152 0
-112 -111 152 0
113 111 171 0
113 -111 -171 0
-113 111 -171 0
-113 -111 171 0
115 114 172 0
115 -114 -172 0
-115 114 -172 0
-115 -114 172 0
117 116 135 0
117 -116 -135 0
-117 116 -135 0
-117 -116 135 0
119 118 138 0
119 -118 -138 0
-119 118 -138 0
-119 -118 138 0
120 118 159 0
120 -118 -159 0
-120 118 -159 0
-120 -118 159 0
122 121 152 0
122 -121 -152 0
-122 121 -152 0
-122 -121 152 0
124 123 152 0
124 -123 -152 0
-124 123 -152 0
-124 -123 152 0
125 123 166 0
125 -123 -166 0
-125 123 -166 0
-125 -123 166 0
126 123 176 0
126 -123 -176 0
-126 123 -176 0
-126 -123 176 0
128 127 150 0
128 -127 -150 0
-128 127 -150 0
-128 -127 150 0
131 130 142 0
131 -130 -142 0
-131 130 -142 0
-131 -130 142 0
132 130 145 0
132 -130 -145 0
-132 130 -145 0
-132 -130 145 0
133 130 150 0
133 -130 -150 0
-133 130 -150 0
-133 -130 150 0
134 130 158 0
134 -130 -158 0
-134 130 -158 0
-134 -130 158 0
136 135 138 0
136 -135 -138 0
-136 135 -138 0
-136 -135 138 0
137 135 174 0
137 -135 -174 0
-137 135 -174 0
-137 -135 174 0
139 138 168 0
139 -138 -168 0
-139 138 -168 0
-139 -138 168 0
141 140 164 0
141 -140 -164 0
-141 140 -164 0
-141 -140 164 0
144 143 176 0
144 -143 -176 0
-144 143 -176 0
-144 -143 176 0
146 145 172 0
146 -145 -172 0
-146 145 -172 0
-146 -145 172 0
147 145 176 0
147 -145 -176 0
-147 145 -176 0
-147 -145 176 0
149 148 159 0
149 -148 -159 0
-149 148 -159 0
-149 -148 159 0
153 152 157 0
153 -152 -157 0
-153 152 -157 0
-153 -152 157 0
154 152 164 0
154 -152 -164 0
-154 152 -164 0
-154 -152 164 0
155 152 168 0
155 -152 -168 0
-155 152 -168 0
-155 -152 168 0
156 152 171 0
156 -152 -171 0
-156 152 -171 0
-156 -152 171 0
161 160 175 0
161 -160 -175 0
-161 160 -175 0
-161 -160 175 0
163 162 176 0
163 -162 -176 0
-163 162 -176 0
-163 -162 176 0
167 166 173 0
167 -166 -173 0
-167 166 -173 0
-167 -166 173 0
170 169 172 0
170 -169 -172 0
-170 169 -172 0
-170 -169 172 0
